TCS_Benchmarks/redos_fix/snort3_output_distinct_1184_1183_56_0.smt2
(set-logic QF_S)
(declare-const x String)
(assert (str.in.re x (re.inter  (re.++ (re.* (re.comp  (str.to.re "\u{7d}")) )  (re.++ (re.comp  (re.union  (str.to.re "\u{3b}")  (str.to.re "\u{7d}"))) (re.++ (re.comp  (re.union  (str.to.re "\u{3b}")  (str.to.re "\u{7d}"))) (re.++ (re.comp  (re.union  (str.to.re "\u{3b}")  (str.to.re "\u{7d}"))) (re.++ (re.comp  (re.union  (str.to.re "\u{3b}")  (str.to.re "\u{7d}"))) (re.++ (re.comp  (re.union  (str.to.re "\u{3b}")  (str.to.re "\u{7d}"))) (re.++ (re.comp  (re.union  (str.to.re "\u{3b}")  (str.to.re "\u{7d}"))) (re.++ (re.comp  (re.union  (str.to.re "\u{3b}")  (str.to.re "\u{7d}"))) (re.++ (re.comp  (re.union  (str.to.re "\u{3b}")  (str.to.re "\u{7d}"))) (re.++ (re.comp  (re.union  (str.to.re "\u{3b}")  (str.to.re "\u{7d}"))) (re.++ (re.comp  (re.union  (str.to.re "\u{3b}")  (str.to.re "\u{7d}"))) (re.++ (re.comp  (re.union  (str.to.re "\u{3b}")  (str.to.re "\u{7d}"))) (re.comp  (re.union  (str.to.re "\u{3b}")  (str.to.re "\u{7d}")))))))))))))))  (re.++ (re.* (re.comp  (str.to.re "\u{7d}")) ) (re.++  (re.++ (re.opt (re.+ (re.range "\u{30}" "\u{39}") ) ) (re.++  (str.to.re "\u{3b}") (re.++ (re.opt (re.+ (re.range "\u{30}" "\u{39}") ) )  (str.to.re "\u{3b}"))))  (re.++ (re.comp  (re.union  (str.to.re "\u{3b}")  (str.to.re "\u{7d}"))) (re.++ (re.comp  (re.union  (str.to.re "\u{3b}")  (str.to.re "\u{7d}"))) (re.++ (re.comp  (re.union  (str.to.re "\u{3b}")  (str.to.re "\u{7d}"))) (re.++ (re.comp  (re.union  (str.to.re "\u{3b}")  (str.to.re "\u{7d}"))) (re.++ (re.comp  (re.union  (str.to.re "\u{3b}")  (str.to.re "\u{7d}"))) (re.++ (re.comp  (re.union  (str.to.re "\u{3b}")  (str.to.re "\u{7d}"))) (re.++ (re.comp  (re.union  (str.to.re "\u{3b}")  (str.to.re "\u{7d}"))) (re.++ (re.comp  (re.union  (str.to.re "\u{3b}")  (str.to.re "\u{7d}"))) (re.++ (re.comp  (re.union  (str.to.re "\u{3b}")  (str.to.re "\u{7d}"))) (re.++ (re.comp  (re.union  (str.to.re "\u{3b}")  (str.to.re "\u{7d}"))) (re.++ (re.comp  (re.union  (str.to.re "\u{3b}")  (str.to.re "\u{7d}"))) (re.comp  (re.union  (str.to.re "\u{3b}")  (str.to.re "\u{7d}")))))))))))))))) )))
(check-sat)
(get-model)