TCS_Benchmarks/redos_fix/snort3_output_distinct_1184_1183_56_0.txt
([^}]*)([^;}]{12})
([^}]*)((\d+)?;(\d+)?;)([^;}]{12})